1448
35 79 41 77 21 28 40 25 29 16 5 94 99 78 22 47 70 97 32 92 53 8 20 62 71 86 24 46 27 82 85 91 84 74 37 39 33 45 68 2 7 65 73 63 66 26 42 13 17 18 57 69 15 44 60 34 98 89 88 80 56 11 50 54 90 52 3 43 59 96 31 55 51 83 49 30 38 1 87 12 48 9 81 23 75 72 95 36 14 93 10 61 6 76 58 4 19 67 64 
